(declare-fun e () String)
(declare-fun c () String)
(declare-fun g () String)
(declare-fun d () String)
(declare-fun f () String)
(declare-fun h () String)
(assert (= "db" (str.++ "d" h)))
(assert (= (str.++ f g c "f" g e) (str.++ d "fga")))
(assert (= "ceh" f))

(check-sat)
